p cnf 7230 16
-4752 -4774 5198 -5201 0
-5199 5201 0
-4742 -4786 5204 0
4742 -5205 0
4752 -5199 0
-5204 5205 0
5202 5203 0
4738 -5203 0
-4738 -5202 0
-5198 5199 0
4786 -5205 0
5200 5201 0
4736 -5201 0
-4736 -5200 0
4774 -5199 0
5196 5197 0
